Results/Experiment 1 Results/New Benchmark/RES_60/output_p1_0.00_p2_0.00_n_60_14.txt
solutions: 373248 nodes: 678154  modelTime: 139  solveTime: 2342  totalTime: 2488  modelSize: 7853  readTime: 7 matchingSize: 30
